75
2 0 1
2 1 1
3 2 1
4 3 1
5 0 1
5 1 1
5 2 1
5 4 1
6 0 1
6 2 1
6 3 1
6 4 1
7 1 1
7 2 1
7 5 1
7 6 1
8 0 1
8 3 1
8 5 1
8 7 1
9 0 1
9 1 1
9 2 1
9 3 1
9 5 1
9 7 1
10 0 1
10 2 1
10 4 1
10 5 1
10 7 1
11 0 1
11 1 1
11 2 1
11 3 1
11 7 1
12 0 1
12 1 1
12 10 1
13 0 1
13 2 1
13 3 1
13 4 1
13 6 1
13 9 1
14 4 1
14 5 1
14 6 1
14 10 1
14 11 1
14 12 1
14 13 1
15 2 1
15 3 1
15 4 1
15 9 1
15 11 1
15 12 1
15 13 1
16 0 1
16 1 1
16 2 1
16 3 1
16 4 1
16 6 1
16 7 1
16 8 1
16 9 1
16 10 1
16 14 1
16 15 1
17 0 1
17 2 1
17 5 1
17 10 1
17 14 1
17 15 1
18 0 1
18 1 1
18 2 1
18 7 1
18 9 1
18 10 1
18 13 1
18 15 1
18 17 1
19 0 1
19 3 1
19 5 1
19 6 1
19 7 1
19 8 1
19 11 1
19 13 1
19 14 1
19 15 1
19 16 1
19 17 1
20 0 1
20 1 1
20 2 1
20 4 1
20 6 1
20 17 1
20 18 1
20 19 1
21 1 1
21 3 1
21 9 1
21 11 1
21 14 1
21 15 1
21 19 1
22 1 1
22 4 1
22 6 1
22 11 1
22 12 1
22 15 1
22 16 1
22 19 1
22 21 1
23 2 1
23 3 1
23 5 1
23 11 1
23 13 1
23 16 1
23 20 1
23 21 1
24 0 1
24 1 1
24 2 1
24 3 1
24 4 1
24 5 1
24 6 1
24 8 1
24 9 1
24 10 1
24 11 1
24 15 1
24 17 1
24 18 1
24 19 1
24 21 1
25 0 1
25 2 1
25 4 1
25 5 1
25 7 1
25 8 1
25 9 1
25 11 1
25 12 1
25 13 1
25 16 1
25 19 1
25 22 1
25 23 1
26 0 1
26 3 1
26 4 1
26 6 1
26 13 1
26 14 1
26 16 1
26 17 1
26 19 1
26 22 1
26 23 1
26 24 1
26 25 1
27 1 1
27 3 1
27 4 1
27 6 1
27 9 1
27 11 1
27 13 1
27 16 1
27 19 1
27 20 1
27 22 1
27 24 1
27 26 1
28 2 1
28 4 1
28 5 1
28 6 1
28 12 1
28 14 1
28 15 1
28 18 1
28 19 1
28 21 1
29 0 1
29 1 1
29 3 1
29 4 1
29 5 1
29 6 1
29 8 1
29 9 1
29 10 1
29 11 1
29 13 1
29 15 1
29 17 1
29 18 1
29 20 1
29 21 1
29 22 1
29 23 1
29 28 1
30 4 1
30 5 1
30 6 1
30 10 1
30 11 1
30 12 1
30 13 1
30 15 1
30 16 1
30 17 1
30 18 1
30 20 1
30 24 1
30 26 1
30 29 1
31 1 1
31 3 1
31 6 1
31 7 1
31 8 1
31 11 1
31 13 1
31 14 1
31 17 1
31 18 1
31 19 1
31 20 1
31 23 1
31 24 1
31 25 1
31 26 1
31 27 1
31 29 1
32 4 1
32 5 1
32 6 1
32 9 1
32 10 1
32 11 1
32 12 1
32 14 1
32 17 1
32 22 1
32 23 1
32 24 1
32 26 1
32 27 1
32 29 1
33 0 1
33 2 1
33 4 1
33 5 1
33 6 1
33 9 1
33 13 1
33 14 1
33 16 1
33 17 1
33 18 1
33 22 1
33 27 1
33 28 1
34 1 1
34 2 1
34 5 1
34 7 1
34 8 1
34 16 1
34 19 1
34 26 1
34 29 1
34 30 1
34 32 1
35 0 1
35 1 1
35 4 1
35 9 1
35 11 1
35 14 1
35 15 1
35 18 1
35 19 1
35 20 1
35 21 1
35 22 1
35 24 1
35 26 1
35 29 1
35 33 1
36 0 1
36 1 1
36 2 1
36 4 1
36 5 1
36 6 1
36 7 1
36 9 1
36 12 1
36 13 1
36 14 1
36 17 1
36 18 1
36 20 1
36 21 1
36 29 1
36 30 1
36 32 1
36 33 1
36 34 1
36 35 1
37 3 1
37 6 1
37 7 1
37 8 1
37 12 1
37 13 1
37 15 1
37 16 1
37 17 1
37 22 1
37 25 1
37 28 1
37 34 1
37 35 1
37 36 1
38 3 1
38 6 1
38 8 1
38 10 1
38 14 1
38 16 1
38 17 1
38 18 1
38 21 1
38 22 1
38 25 1
38 26 1
38 27 1
38 28 1
38 29 1
38 30 1
38 31 1
38 33 1
38 34 1
38 36 1
39 0 1
39 1 1
39 5 1
39 6 1
39 8 1
39 9 1
39 13 1
39 14 1
39 15 1
39 18 1
39 20 1
39 22 1
39 25 1
39 26 1
39 27 1
39 28 1
39 32 1
39 33 1
39 34 1
39 36 1
39 38 1
40 0 1
40 1 1
40 2 1
40 6 1
40 7 1
40 8 1
40 10 1
40 11 1
40 12 1
40 16 1
40 17 1
40 19 1
40 20 1
40 21 1
40 23 1
40 24 1
40 25 1
40 27 1
40 29 1
40 31 1
40 33 1
40 34 1
40 37 1
40 38 1
41 1 1
41 4 1
41 5 1
41 7 1
41 9 1
41 10 1
41 13 1
41 14 1
41 15 1
41 16 1
41 20 1
41 22 1
41 23 1
41 30 1
41 32 1
41 33 1
41 34 1
41 35 1
41 36 1
41 37 1
41 38 1
41 40 1
42 0 1
42 1 1
42 3 1
42 6 1
42 9 1
42 10 1
42 13 1
42 14 1
42 15 1
42 16 1
42 17 1
42 21 1
42 23 1
42 30 1
42 35 1
42 36 1
42 37 1
42 39 1
42 40 1
42 41 1
43 3 1
43 5 1
43 6 1
43 9 1
43 10 1
43 14 1
43 16 1
43 21 1
43 22 1
43 23 1
43 24 1
43 26 1
43 27 1
43 28 1
43 32 1
43 33 1
43 34 1
43 35 1
43 37 1
43 39 1
43 40 1
43 41 1
43 42 1
44 1 1
44 2 1
44 4 1
44 6 1
44 8 1
44 13 1
44 15 1
44 19 1
44 23 1
44 25 1
44 26 1
44 27 1
44 28 1
44 31 1
44 32 1
44 36 1
44 37 1
44 39 1
44 42 1
45 3 1
45 4 1
45 6 1
45 7 1
45 15 1
45 16 1
45 17 1
45 18 1
45 19 1
45 21 1
45 24 1
45 25 1
45 27 1
45 28 1
45 29 1
45 31 1
45 32 1
45 34 1
45 36 1
45 40 1
45 41 1
45 42 1
45 44 1
46 2 1
46 4 1
46 6 1
46 7 1
46 10 1
46 15 1
46 16 1
46 18 1
46 20 1
46 22 1
46 23 1
46 24 1
46 27 1
46 30 1
46 35 1
46 36 1
46 39 1
46 42 1
46 44 1
47 0 1
47 1 1
47 2 1
47 3 1
47 4 1
47 5 1
47 6 1
47 7 1
47 9 1
47 14 1
47 16 1
47 17 1
47 18 1
47 19 1
47 20 1
47 22 1
47 23 1
47 26 1
47 27 1
47 29 1
47 30 1
47 32 1
47 34 1
47 36 1
47 39 1
47 43 1
47 44 1
48 0 1
48 1 1
48 2 1
48 3 1
48 6 1
48 7 1
48 10 1
48 11 1
48 15 1
48 16 1
48 17 1
48 18 1
48 20 1
48 21 1
48 23 1
48 30 1
48 31 1
48 33 1
48 34 1
48 36 1
48 40 1
48 41 1
48 42 1
48 43 1
48 45 1
49 1 1
49 2 1
49 4 1
49 7 1
49 8 1
49 9 1
49 13 1
49 17 1
49 19 1
49 20 1
49 24 1
49 26 1
49 27 1
49 28 1
49 30 1
49 32 1
49 33 1
49 34 1
49 37 1
49 42 1
49 43 1
49 44 1
49 45 1
49 46 1
49 47 1
49 48 1
50 1 1
50 3 1
50 5 1
50 13 1
50 15 1
50 16 1
50 18 1
50 23 1
50 25 1
50 29 1
50 32 1
50 35 1
50 36 1
50 39 1
50 40 1
50 42 1
50 43 1
50 47 1
50 48 1
51 2 1
51 4 1
51 5 1
51 6 1
51 7 1
51 8 1
51 10 1
51 11 1
51 12 1
51 17 1
51 22 1
51 24 1
51 27 1
51 28 1
51 31 1
51 32 1
51 33 1
51 35 1
51 36 1
51 37 1
51 40 1
51 42 1
51 48 1
51 50 1
52 0 1
52 1 1
52 2 1
52 3 1
52 5 1
52 6 1
52 7 1
52 8 1
52 10 1
52 13 1
52 15 1
52 16 1
52 17 1
52 20 1
52 23 1
52 28 1
52 29 1
52 35 1
52 38 1
52 46 1
52 51 1
53 1 1
53 2 1
53 3 1
53 4 1
53 5 1
53 6 1
53 7 1
53 8 1
53 14 1
53 15 1
53 17 1
53 18 1
53 21 1
53 22 1
53 27 1
53 30 1
53 31 1
53 34 1
53 37 1
53 40 1
53 41 1
53 43 1
53 45 1
53 47 1
53 49 1
53 51 1
54 0 1
54 1 1
54 6 1
54 7 1
54 8 1
54 10 1
54 11 1
54 13 1
54 15 1
54 19 1
54 26 1
54 28 1
54 30 1
54 31 1
54 33 1
54 34 1
54 41 1
54 43 1
54 44 1
54 45 1
54 46 1
54 47 1
54 48 1
54 49 1
55 0 1
55 1 1
55 2 1
55 4 1
55 8 1
55 9 1
55 11 1
55 16 1
55 17 1
55 19 1
55 21 1
55 22 1
55 24 1
55 27 1
55 31 1
55 33 1
55 36 1
55 39 1
55 43 1
55 44 1
55 46 1
55 47 1
55 49 1
55 51 1
55 52 1
55 53 1
56 0 1
56 2 1
56 8 1
56 10 1
56 14 1
56 20 1
56 23 1
56 27 1
56 31 1
56 34 1
56 35 1
56 36 1
56 38 1
56 40 1
56 43 1
56 44 1
56 45 1
56 46 1
56 48 1
56 50 1
56 51 1
56 53 1
56 54 1
57 2 1
57 4 1
57 6 1
57 9 1
57 10 1
57 11 1
57 13 1
57 15 1
57 18 1
57 19 1
57 20 1
57 28 1
57 31 1
57 35 1
57 38 1
57 41 1
57 42 1
57 43 1
57 44 1
57 45 1
57 46 1
57 47 1
57 49 1
57 52 1
57 56 1
58 0 1
58 3 1
58 4 1
58 6 1
58 9 1
58 11 1
58 12 1
58 14 1
58 16 1
58 21 1
58 23 1
58 24 1
58 25 1
58 27 1
58 28 1
58 29 1
58 30 1
58 31 1
58 32 1
58 34 1
58 35 1
58 37 1
58 39 1
58 40 1
58 41 1
58 43 1
58 44 1
58 45 1
58 47 1
58 48 1
58 49 1
58 50 1
58 51 1
58 52 1
58 53 1
58 54 1
58 55 1
58 56 1
58 57 1
59 1 1
59 5 1
59 7 1
59 9 1
59 14 1
59 15 1
59 16 1
59 17 1
59 18 1
59 19 1
59 20 1
59 24 1
59 27 1
59 28 1
59 31 1
59 32 1
59 34 1
59 41 1
59 43 1
59 44 1
59 48 1
59 50 1
59 52 1
59 53 1
59 55 1
59 56 1
59 57 1
59 58 1
60 1 1
60 3 1
60 5 1
60 6 1
60 8 1
60 9 1
60 10 1
60 11 1
60 13 1
60 14 1
60 15 1
60 17 1
60 19 1
60 20 1
60 21 1
60 23 1
60 26 1
60 30 1
60 31 1
60 32 1
60 33 1
60 36 1
60 38 1
60 40 1
60 41 1
60 44 1
60 49 1
60 50 1
60 53 1
60 54 1
60 55 1
60 56 1
60 57 1
60 58 1
60 59 1
61 2 1
61 4 1
61 10 1
61 11 1
61 12 1
61 13 1
61 15 1
61 17 1
61 19 1
61 21 1
61 22 1
61 27 1
61 28 1
61 29 1
61 30 1
61 32 1
61 33 1
61 34 1
61 35 1
61 37 1
61 39 1
61 40 1
61 42 1
61 43 1
61 47 1
61 48 1
61 49 1
61 50 1
61 54 1
61 56 1
61 57 1
61 58 1
61 59 1
62 0 1
62 3 1
62 4 1
62 7 1
62 8 1
62 9 1
62 12 1
62 14 1
62 15 1
62 16 1
62 18 1
62 19 1
62 21 1
62 23 1
62 26 1
62 27 1
62 29 1
62 35 1
62 36 1
62 37 1
62 38 1
62 39 1
62 41 1
62 43 1
62 46 1
62 47 1
62 50 1
62 51 1
62 54 1
62 55 1
63 0 1
63 2 1
63 3 1
63 5 1
63 6 1
63 7 1
63 8 1
63 10 1
63 12 1
63 20 1
63 22 1
63 24 1
63 25 1
63 27 1
63 28 1
63 29 1
63 31 1
63 32 1
63 34 1
63 36 1
63 39 1
63 40 1
63 42 1
63 43 1
63 44 1
63 47 1
63 50 1
63 51 1
63 53 1
63 54 1
63 55 1
63 60 1
63 61 1
63 62 1
64 1 1
64 3 1
64 4 1
64 8 1
64 10 1
64 11 1
64 12 1
64 13 1
64 14 1
64 15 1
64 16 1
64 17 1
64 19 1
64 23 1
64 26 1
64 28 1
64 32 1
64 34 1
64 36 1
64 37 1
64 38 1
64 39 1
64 43 1
64 44 1
64 45 1
64 46 1
64 47 1
64 48 1
64 50 1
64 51 1
64 55 1
64 58 1
64 59 1
65 1 1
65 2 1
65 3 1
65 5 1
65 6 1
65 8 1
65 9 1
65 10 1
65 13 1
65 14 1
65 15 1
65 17 1
65 19 1
65 20 1
65 22 1
65 23 1
65 25 1
65 26 1
65 28 1
65 38 1
65 43 1
65 45 1
65 46 1
65 47 1
65 48 1
65 50 1
65 51 1
65 52 1
65 53 1
65 58 1
65 59 1
65 60 1
65 62 1
65 63 1
65 64 1
66 2 1
66 4 1
66 5 1
66 6 1
66 8 1
66 9 1
66 10 1
66 12 1
66 13 1
66 14 1
66 18 1
66 21 1
66 24 1
66 26 1
66 27 1
66 30 1
66 32 1
66 33 1
66 34 1
66 35 1
66 36 1
66 37 1
66 38 1
66 39 1
66 40 1
66 41 1
66 42 1
66 44 1
66 45 1
66 46 1
66 47 1
66 50 1
66 54 1
66 55 1
66 56 1
66 57 1
66 58 1
66 59 1
66 60 1
66 64 1
67 0 1
67 3 1
67 4 1
67 5 1
67 6 1
67 7 1
67 8 1
67 14 1
67 16 1
67 22 1
67 23 1
67 24 1
67 27 1
67 28 1
67 29 1
67 30 1
67 31 1
67 36 1
67 37 1
67 38 1
67 41 1
67 42 1
67 43 1
67 49 1
67 53 1
67 56 1
67 58 1
67 60 1
67 61 1
67 62 1
67 64 1
68 0 1
68 1 1
68 3 1
68 4 1
68 5 1
68 9 1
68 12 1
68 13 1
68 17 1
68 18 1
68 20 1
68 21 1
68 24 1
68 25 1
68 26 1
68 32 1
68 34 1
68 35 1
68 36 1
68 41 1
68 43 1
68 44 1
68 45 1
68 46 1
68 48 1
68 49 1
68 50 1
68 57 1
68 58 1
68 60 1
68 62 1
68 64 1
68 65 1
68 66 1
68 67 1
69 0 1
69 1 1
69 2 1
69 3 1
69 4 1
69 9 1
69 10 1
69 13 1
69 14 1
69 15 1
69 16 1
69 19 1
69 20 1
69 21 1
69 22 1
69 24 1
69 26 1
69 27 1
69 28 1
69 29 1
69 32 1
69 35 1
69 36 1
69 38 1
69 43 1
69 46 1
69 48 1
69 50 1
69 51 1
69 56 1
69 60 1
69 63 1
69 64 1
69 65 1
69 66 1
69 68 1
70 0 1
70 3 1
70 5 1
70 11 1
70 12 1
70 14 1
70 15 1
70 16 1
70 17 1
70 18 1
70 20 1
70 21 1
70 23 1
70 24 1
70 34 1
70 35 1
70 38 1
70 41 1
70 45 1
70 46 1
70 47 1
70 48 1
70 50 1
70 51 1
70 54 1
70 55 1
70 57 1
70 58 1
70 59 1
70 65 1
70 66 1
70 67 1
71 1 1
71 2 1
71 8 1
71 10 1
71 11 1
71 13 1
71 14 1
71 15 1
71 19 1
71 20 1
71 21 1
71 22 1
71 24 1
71 25 1
71 30 1
71 33 1
71 34 1
71 37 1
71 38 1
71 39 1
71 41 1
71 43 1
71 46 1
71 48 1
71 50 1
71 52 1
71 53 1
71 54 1
71 55 1
71 56 1
71 59 1
71 61 1
71 62 1
71 64 1
71 65 1
71 68 1
71 69 1
72 2 1
72 3 1
72 6 1
72 7 1
72 8 1
72 9 1
72 10 1
72 11 1
72 14 1
72 19 1
72 20 1
72 21 1
72 24 1
72 26 1
72 29 1
72 31 1
72 32 1
72 34 1
72 35 1
72 37 1
72 39 1
72 41 1
72 43 1
72 45 1
72 47 1
72 49 1
72 50 1
72 52 1
72 53 1
72 56 1
72 58 1
72 59 1
72 62 1
72 69 1
73 1 1
73 2 1
73 7 1
73 11 1
73 12 1
73 15 1
73 17 1
73 19 1
73 20 1
73 25 1
73 26 1
73 28 1
73 29 1
73 30 1
73 33 1
73 35 1
73 36 1
73 40 1
73 41 1
73 44 1
73 46 1
73 47 1
73 48 1
73 49 1
73 53 1
73 54 1
73 55 1
73 57 1
73 60 1
73 64 1
73 66 1
73 67 1
73 69 1
73 70 1
73 72 1
74 2 1
74 4 1
74 5 1
74 6 1
74 7 1
74 8 1
74 9 1
74 11 1
74 12 1
74 13 1
74 15 1
74 17 1
74 19 1
74 20 1
74 27 1
74 28 1
74 29 1
74 31 1
74 32 1
74 33 1
74 35 1
74 36 1
74 37 1
74 38 1
74 39 1
74 40 1
74 41 1
74 43 1
74 44 1
74 46 1
74 51 1
74 53 1
74 55 1
74 56 1
74 57 1
74 59 1
74 62 1
74 63 1
74 65 1
74 66 1
74 68 1
74 70 1
74 71 1
74 72 1
74 73 1
